n = 23;
budget = 2853000;
groceries = [|80,140,15,107,3877|150,18,90,129,2069|42,108,138,167,1962|280,50,250,101,1528|8,88,56,137,1855|207,9,162,52,3579|55,50,35,170,3720|54,396,144,157,1742|45,175,145,148,1304|130,260,270,95,3545|104,448,80,101,2616|65,25,140,188,1699|78,84,120,142,3524|50,10,45,122,1582|45,9,117,111,1839|150,330,330,113,1398|84,162,444,125,2614|60,180,132,72,1559|90,90,711,98,3107|56,217,161,183,3408|60,130,40,191,3922|150,170,260,197,1851|40,120,80,116,3592|];
requirements = [|76,92|400,400|114,124|];
offset = [|7,18|200,260|28,43|];
variety = 14;